pair_coeff 3 3 sdpd/taitwater/isothermal/mf ${rho0} ${c0} ${h} ${eta33} ${ksai33} ${wall_index11} ${a_thixo33} ${b_thixo33} ${alpha_thixo33} ${f0_thixo33} ${s33} 0.0 0 0
pair_coeff 4 4 sdpd/taitwater/isothermal/mf ${rho0} ${c0} ${h} ${eta44} ${ksai44} ${wall_index11} ${a_thixo44} ${b_thixo44} ${alpha_thixo44} ${f0_thixo44} ${s44} 0.0 0 0
pair_coeff 5 5 sdpd/taitwater/isothermal/mf ${rho0} ${c0} ${h} ${eta55} ${ksai55} ${wall_index11} ${a_thixo55} ${b_thixo55} ${alpha_thixo55} ${f0_thixo55} ${s55} 0.0 0 0
pair_coeff 6 6 sdpd/taitwater/isothermal/mf ${rho0} ${c0} ${h} ${eta66} ${ksai66} ${wall_index11} ${a_thixo66} ${b_thixo66} ${alpha_thixo66} ${f0_thixo66} ${s66} 0.0 0 0
pair_coeff 7 7 sdpd/taitwater/isothermal/mf ${rho0} ${c0} ${h} ${eta77} ${ksai77} ${wall_index11} ${a_thixo77} ${b_thixo77} ${alpha_thixo77} ${f0_thixo77} ${s77} 0.0 0 0
pair_coeff 8 8 sdpd/taitwater/isothermal/mf ${rho0} ${c0} ${h} ${eta88} ${ksai88} ${wall_index11} ${a_thixo88} ${b_thixo88} ${alpha_thixo88} ${f0_thixo88} ${s88} 0.0 0 0
pair_coeff 9 9 sdpd/taitwater/isothermal/mf ${rho0} ${c0} ${h} ${eta99} ${ksai99} ${wall_index11} ${a_thixo99} ${b_thixo99} ${alpha_thixo99} ${f0_thixo99} ${s99} 0.0 0 0
pair_coeff 10 10 sdpd/taitwater/isothermal/mf ${rho0} ${c0} ${h} ${eta1010} ${ksai1010} ${wall_index11} ${a_thixo1010} ${b_thixo1010} ${alpha_thixo1010} ${f0_thixo1010} ${s1010} 0.0 0 0
pair_coeff 11 11 sdpd/taitwater/isothermal/mf ${rho0} ${c0} ${h} ${eta1111} ${ksai1111} ${wall_index11} ${a_thixo1111} ${b_thixo1111} ${alpha_thixo1111} ${f0_thixo1111} ${s1111} 0.0 0 0
pair_coeff 12 12 sdpd/taitwater/isothermal/mf ${rho0} ${c0} ${h} ${eta1212} ${ksai1212} ${wall_index11} ${a_thixo1212} ${b_thixo1212} ${alpha_thixo1212} ${f0_thixo1212} ${s1212} 0.0 0 0
pair_coeff 13 13 sdpd/taitwater/isothermal/mf ${rho0} ${c0} ${h} ${eta1313} ${ksai1313} ${wall_index11} ${a_thixo1313} ${b_thixo1313} ${alpha_thixo1313} ${f0_thixo1313} ${s1313} 0.0 0 0
pair_coeff 14 14 sdpd/taitwater/isothermal/mf ${rho0} ${c0} ${h} ${eta1414} ${ksai1414} ${wall_index11} ${a_thixo1414} ${b_thixo1414} ${alpha_thixo1414} ${f0_thixo1414} ${s1414} 0.0 0 0
pair_coeff 15 15 sdpd/taitwater/isothermal/mf ${rho0} ${c0} ${h} ${eta1515} ${ksai1515} ${wall_index11} ${a_thixo1515} ${b_thixo1515} ${alpha_thixo1515} ${f0_thixo1515} ${s1515} 0.0 0 0
pair_coeff 16 16 sdpd/taitwater/isothermal/mf ${rho0} ${c0} ${h} ${eta1616} ${ksai1616} ${wall_index11} ${a_thixo1616} ${b_thixo1616} ${alpha_thixo1616} ${f0_thixo1616} ${s1616} 0.0 0 0
pair_coeff 17 17 sdpd/taitwater/isothermal/mf ${rho0} ${c0} ${h} ${eta1717} ${ksai1717} ${wall_index11} ${a_thixo1717} ${b_thixo1717} ${alpha_thixo1717} ${f0_thixo1717} ${s1717} 0.0 0 0
pair_coeff 18 18 sdpd/taitwater/isothermal/mf ${rho0} ${c0} ${h} ${eta1818} ${ksai1818} ${wall_index11} ${a_thixo1818} ${b_thixo1818} ${alpha_thixo1818} ${f0_thixo1818} ${s1818} 0.0 0 0
pair_coeff 19 19 sdpd/taitwater/isothermal/mf ${rho0} ${c0} ${h} ${eta1919} ${ksai1919} ${wall_index11} ${a_thixo1919} ${b_thixo1919} ${alpha_thixo1919} ${f0_thixo1919} ${s1919} 0.0 0 0
pair_coeff 20 20 sdpd/taitwater/isothermal/mf ${rho0} ${c0} ${h} ${eta2020} ${ksai2020} ${wall_index11} ${a_thixo2020} ${b_thixo2020} ${alpha_thixo2020} ${f0_thixo2020} ${s2020} 0.0 0 0
pair_coeff 21 21 sdpd/taitwater/isothermal/mf ${rho0} ${c0} ${h} ${eta2121} ${ksai2121} ${wall_index11} ${a_thixo2121} ${b_thixo2121} ${alpha_thixo2121} ${f0_thixo2121} ${s2121} 0.0 0 0
pair_coeff 22 22 sdpd/taitwater/isothermal/mf ${rho0} ${c0} ${h} ${eta2222} ${ksai2222} ${wall_index11} ${a_thixo2222} ${b_thixo2222} ${alpha_thixo2222} ${f0_thixo2222} ${s2222} 0.0 0 0
pair_coeff 23 23 sdpd/taitwater/isothermal/mf ${rho0} ${c0} ${h} ${eta2323} ${ksai2323} ${wall_index11} ${a_thixo2323} ${b_thixo2323} ${alpha_thixo2323} ${f0_thixo2323} ${s2323} 0.0 0 0
pair_coeff 24 24 sdpd/taitwater/isothermal/mf ${rho0} ${c0} ${h} ${eta2424} ${ksai2424} ${wall_index11} ${a_thixo2424} ${b_thixo2424} ${alpha_thixo2424} ${f0_thixo2424} ${s2424} 0.0 0 0
pair_coeff 25 25 sdpd/taitwater/isothermal/mf ${rho0} ${c0} ${h} ${eta2525} ${ksai2525} ${wall_index11} ${a_thixo2525} ${b_thixo2525} ${alpha_thixo2525} ${f0_thixo2525} ${s2525} 0.0 0 0
pair_coeff 26 26 sdpd/taitwater/isothermal/mf ${rho0} ${c0} ${h} ${eta2626} ${ksai2626} ${wall_index11} ${a_thixo2626} ${b_thixo2626} ${alpha_thixo2626} ${f0_thixo2626} ${s2626} 0.0 0 0
pair_coeff 27 27 sdpd/taitwater/isothermal/mf ${rho0} ${c0} ${h} ${eta2727} ${ksai2727} ${wall_index11} ${a_thixo2727} ${b_thixo2727} ${alpha_thixo2727} ${f0_thixo2727} ${s2727} 0.0 0 0

pair_coeff 1 3 sdpd/taitwater/isothermal/mf ${rho0} ${c0} ${h} ${eta13} ${ksai13} ${wall_index11} ${a_thixo13} ${b_thixo13} ${alpha_thixo13} ${f0_thixo13} ${s13} 0.0 0 0
pair_coeff 1 4 sdpd/taitwater/isothermal/mf ${rho0} ${c0} ${h} ${eta14} ${ksai14} ${wall_index11} ${a_thixo14} ${b_thixo14} ${alpha_thixo14} ${f0_thixo14} ${s14} 0.0 0 0
pair_coeff 1 5 sdpd/taitwater/isothermal/mf ${rho0} ${c0} ${h} ${eta15} ${ksai15} ${wall_index11} ${a_thixo15} ${b_thixo15} ${alpha_thixo15} ${f0_thixo15} ${s15} 0.0 0 0
pair_coeff 1 6 sdpd/taitwater/isothermal/mf ${rho0} ${c0} ${h} ${eta16} ${ksai16} ${wall_index11} ${a_thixo16} ${b_thixo16} ${alpha_thixo16} ${f0_thixo16} ${s16} 0.0 0 0
pair_coeff 1 7 sdpd/taitwater/isothermal/mf ${rho0} ${c0} ${h} ${eta17} ${ksai17} ${wall_index11} ${a_thixo17} ${b_thixo17} ${alpha_thixo17} ${f0_thixo17} ${s17} 0.0 0 0
pair_coeff 1 8 sdpd/taitwater/isothermal/mf ${rho0} ${c0} ${h} ${eta18} ${ksai18} ${wall_index11} ${a_thixo18} ${b_thixo18} ${alpha_thixo18} ${f0_thixo18} ${s18} 0.0 0 0
pair_coeff 1 9 sdpd/taitwater/isothermal/mf ${rho0} ${c0} ${h} ${eta19} ${ksai19} ${wall_index11} ${a_thixo19} ${b_thixo19} ${alpha_thixo19} ${f0_thixo19} ${s19} 0.0 0 0
pair_coeff 1 10 sdpd/taitwater/isothermal/mf ${rho0} ${c0} ${h} ${eta110} ${ksai110} ${wall_index11} ${a_thixo110} ${b_thixo110} ${alpha_thixo110} ${f0_thixo110} ${s110} 0.0 0 0
pair_coeff 1 11 sdpd/taitwater/isothermal/mf ${rho0} ${c0} ${h} ${eta111} ${ksai111} ${wall_index11} ${a_thixo111} ${b_thixo111} ${alpha_thixo111} ${f0_thixo111} ${s111} 0.0 0 0
pair_coeff 1 12 sdpd/taitwater/isothermal/mf ${rho0} ${c0} ${h} ${eta112} ${ksai112} ${wall_index11} ${a_thixo112} ${b_thixo112} ${alpha_thixo112} ${f0_thixo112} ${s112} 0.0 0 0
pair_coeff 1 13 sdpd/taitwater/isothermal/mf ${rho0} ${c0} ${h} ${eta113} ${ksai113} ${wall_index11} ${a_thixo113} ${b_thixo113} ${alpha_thixo113} ${f0_thixo113} ${s113} 0.0 0 0
pair_coeff 1 14 sdpd/taitwater/isothermal/mf ${rho0} ${c0} ${h} ${eta114} ${ksai114} ${wall_index11} ${a_thixo114} ${b_thixo114} ${alpha_thixo114} ${f0_thixo114} ${s114} 0.0 0 0
pair_coeff 1 15 sdpd/taitwater/isothermal/mf ${rho0} ${c0} ${h} ${eta115} ${ksai115} ${wall_index11} ${a_thixo115} ${b_thixo115} ${alpha_thixo115} ${f0_thixo115} ${s115} 0.0 0 0
pair_coeff 1 16 sdpd/taitwater/isothermal/mf ${rho0} ${c0} ${h} ${eta116} ${ksai116} ${wall_index11} ${a_thixo116} ${b_thixo116} ${alpha_thixo116} ${f0_thixo116} ${s116} 0.0 0 0
pair_coeff 1 17 sdpd/taitwater/isothermal/mf ${rho0} ${c0} ${h} ${eta117} ${ksai117} ${wall_index11} ${a_thixo117} ${b_thixo117} ${alpha_thixo117} ${f0_thixo117} ${s117} 0.0 0 0
pair_coeff 1 18 sdpd/taitwater/isothermal/mf ${rho0} ${c0} ${h} ${eta118} ${ksai118} ${wall_index11} ${a_thixo118} ${b_thixo118} ${alpha_thixo118} ${f0_thixo118} ${s118} 0.0 0 0
pair_coeff 1 19 sdpd/taitwater/isothermal/mf ${rho0} ${c0} ${h} ${eta119} ${ksai119} ${wall_index11} ${a_thixo119} ${b_thixo119} ${alpha_thixo119} ${f0_thixo119} ${s119} 0.0 0 0
pair_coeff 1 20 sdpd/taitwater/isothermal/mf ${rho0} ${c0} ${h} ${eta120} ${ksai120} ${wall_index11} ${a_thixo120} ${b_thixo120} ${alpha_thixo120} ${f0_thixo120} ${s120} 0.0 0 0
pair_coeff 1 21 sdpd/taitwater/isothermal/mf ${rho0} ${c0} ${h} ${eta121} ${ksai121} ${wall_index11} ${a_thixo121} ${b_thixo121} ${alpha_thixo121} ${f0_thixo121} ${s121} 0.0 0 0
pair_coeff 1 22 sdpd/taitwater/isothermal/mf ${rho0} ${c0} ${h} ${eta122} ${ksai122} ${wall_index11} ${a_thixo122} ${b_thixo122} ${alpha_thixo122} ${f0_thixo122} ${s122} 0.0 0 0
pair_coeff 1 23 sdpd/taitwater/isothermal/mf ${rho0} ${c0} ${h} ${eta123} ${ksai123} ${wall_index11} ${a_thixo123} ${b_thixo123} ${alpha_thixo123} ${f0_thixo123} ${s123} 0.0 0 0
pair_coeff 1 24 sdpd/taitwater/isothermal/mf ${rho0} ${c0} ${h} ${eta124} ${ksai124} ${wall_index11} ${a_thixo124} ${b_thixo124} ${alpha_thixo124} ${f0_thixo124} ${s124} 0.0 0 0
pair_coeff 1 25 sdpd/taitwater/isothermal/mf ${rho0} ${c0} ${h} ${eta125} ${ksai125} ${wall_index11} ${a_thixo125} ${b_thixo125} ${alpha_thixo125} ${f0_thixo125} ${s125} 0.0 0 0
pair_coeff 1 26 sdpd/taitwater/isothermal/mf ${rho0} ${c0} ${h} ${eta126} ${ksai126} ${wall_index11} ${a_thixo126} ${b_thixo126} ${alpha_thixo126} ${f0_thixo126} ${s126} 0.0 0 0
pair_coeff 1 27 sdpd/taitwater/isothermal/mf ${rho0} ${c0} ${h} ${eta127} ${ksai127} ${wall_index11} ${a_thixo127} ${b_thixo127} ${alpha_thixo127} ${f0_thixo127} ${s127} 0.0 0 0

pair_coeff 2 3 sdpd/taitwater/isothermal/mf ${rho0} ${c0} ${h} ${eta13} ${ksai13} ${wall_index11} ${a_thixo13} ${b_thixo13} ${alpha_thixo13} ${f0_thixo13} ${s13} 0.0 0 0
pair_coeff 2 4 sdpd/taitwater/isothermal/mf ${rho0} ${c0} ${h} ${eta14} ${ksai14} ${wall_index11} ${a_thixo14} ${b_thixo14} ${alpha_thixo14} ${f0_thixo14} ${s14} 0.0 0 0
pair_coeff 2 5 sdpd/taitwater/isothermal/mf ${rho0} ${c0} ${h} ${eta15} ${ksai15} ${wall_index11} ${a_thixo15} ${b_thixo15} ${alpha_thixo15} ${f0_thixo15} ${s15} 0.0 0 0
pair_coeff 2 6 sdpd/taitwater/isothermal/mf ${rho0} ${c0} ${h} ${eta16} ${ksai16} ${wall_index11} ${a_thixo16} ${b_thixo16} ${alpha_thixo16} ${f0_thixo16} ${s16} 0.0 0 0
pair_coeff 2 7 sdpd/taitwater/isothermal/mf ${rho0} ${c0} ${h} ${eta17} ${ksai17} ${wall_index11} ${a_thixo17} ${b_thixo17} ${alpha_thixo17} ${f0_thixo17} ${s17} 0.0 0 0
pair_coeff 2 8 sdpd/taitwater/isothermal/mf ${rho0} ${c0} ${h} ${eta18} ${ksai18} ${wall_index11} ${a_thixo18} ${b_thixo18} ${alpha_thixo18} ${f0_thixo18} ${s18} 0.0 0 0
pair_coeff 2 9 sdpd/taitwater/isothermal/mf ${rho0} ${c0} ${h} ${eta19} ${ksai19} ${wall_index11} ${a_thixo19} ${b_thixo19} ${alpha_thixo19} ${f0_thixo19} ${s19} 0.0 0 0
pair_coeff 2 10 sdpd/taitwater/isothermal/mf ${rho0} ${c0} ${h} ${eta110} ${ksai110} ${wall_index11} ${a_thixo110} ${b_thixo110} ${alpha_thixo110} ${f0_thixo110} ${s110} 0.0 0 0
pair_coeff 2 11 sdpd/taitwater/isothermal/mf ${rho0} ${c0} ${h} ${eta111} ${ksai111} ${wall_index11} ${a_thixo111} ${b_thixo111} ${alpha_thixo111} ${f0_thixo111} ${s111} 0.0 0 0
pair_coeff 2 12 sdpd/taitwater/isothermal/mf ${rho0} ${c0} ${h} ${eta112} ${ksai112} ${wall_index11} ${a_thixo112} ${b_thixo112} ${alpha_thixo112} ${f0_thixo112} ${s112} 0.0 0 0
pair_coeff 2 13 sdpd/taitwater/isothermal/mf ${rho0} ${c0} ${h} ${eta113} ${ksai113} ${wall_index11} ${a_thixo113} ${b_thixo113} ${alpha_thixo113} ${f0_thixo113} ${s113} 0.0 0 0
pair_coeff 2 14 sdpd/taitwater/isothermal/mf ${rho0} ${c0} ${h} ${eta114} ${ksai114} ${wall_index11} ${a_thixo114} ${b_thixo114} ${alpha_thixo114} ${f0_thixo114} ${s114} 0.0 0 0
pair_coeff 2 15 sdpd/taitwater/isothermal/mf ${rho0} ${c0} ${h} ${eta115} ${ksai115} ${wall_index11} ${a_thixo115} ${b_thixo115} ${alpha_thixo115} ${f0_thixo115} ${s115} 0.0 0 0
pair_coeff 2 16 sdpd/taitwater/isothermal/mf ${rho0} ${c0} ${h} ${eta116} ${ksai116} ${wall_index11} ${a_thixo116} ${b_thixo116} ${alpha_thixo116} ${f0_thixo116} ${s116} 0.0 0 0
pair_coeff 2 17 sdpd/taitwater/isothermal/mf ${rho0} ${c0} ${h} ${eta117} ${ksai117} ${wall_index11} ${a_thixo117} ${b_thixo117} ${alpha_thixo117} ${f0_thixo117} ${s117} 0.0 0 0
pair_coeff 2 18 sdpd/taitwater/isothermal/mf ${rho0} ${c0} ${h} ${eta118} ${ksai118} ${wall_index11} ${a_thixo118} ${b_thixo118} ${alpha_thixo118} ${f0_thixo118} ${s118} 0.0 0 0
pair_coeff 2 19 sdpd/taitwater/isothermal/mf ${rho0} ${c0} ${h} ${eta119} ${ksai119} ${wall_index11} ${a_thixo119} ${b_thixo119} ${alpha_thixo119} ${f0_thixo119} ${s119} 0.0 0 0
pair_coeff 2 20 sdpd/taitwater/isothermal/mf ${rho0} ${c0} ${h} ${eta120} ${ksai120} ${wall_index11} ${a_thixo120} ${b_thixo120} ${alpha_thixo120} ${f0_thixo120} ${s120} 0.0 0 0
pair_coeff 2 21 sdpd/taitwater/isothermal/mf ${rho0} ${c0} ${h} ${eta121} ${ksai121} ${wall_index11} ${a_thixo121} ${b_thixo121} ${alpha_thixo121} ${f0_thixo121} ${s121} 0.0 0 0
pair_coeff 2 22 sdpd/taitwater/isothermal/mf ${rho0} ${c0} ${h} ${eta122} ${ksai122} ${wall_index11} ${a_thixo122} ${b_thixo122} ${alpha_thixo122} ${f0_thixo122} ${s122} 0.0 0 0
pair_coeff 2 23 sdpd/taitwater/isothermal/mf ${rho0} ${c0} ${h} ${eta123} ${ksai123} ${wall_index11} ${a_thixo123} ${b_thixo123} ${alpha_thixo123} ${f0_thixo123} ${s123} 0.0 0 0
pair_coeff 2 24 sdpd/taitwater/isothermal/mf ${rho0} ${c0} ${h} ${eta124} ${ksai124} ${wall_index11} ${a_thixo124} ${b_thixo124} ${alpha_thixo124} ${f0_thixo124} ${s124} 0.0 0 0
pair_coeff 2 25 sdpd/taitwater/isothermal/mf ${rho0} ${c0} ${h} ${eta125} ${ksai125} ${wall_index11} ${a_thixo125} ${b_thixo125} ${alpha_thixo125} ${f0_thixo125} ${s125} 0.0 0 0
pair_coeff 2 26 sdpd/taitwater/isothermal/mf ${rho0} ${c0} ${h} ${eta126} ${ksai126} ${wall_index11} ${a_thixo126} ${b_thixo126} ${alpha_thixo126} ${f0_thixo126} ${s126} 0.0 0 0
pair_coeff 2 27 sdpd/taitwater/isothermal/mf ${rho0} ${c0} ${h} ${eta127} ${ksai127} ${wall_index11} ${a_thixo127} ${b_thixo127} ${alpha_thixo127} ${f0_thixo127} ${s127} 0.0 0 0

pair_coeff 3 4 sdpd/taitwater/isothermal/mf ${rho0} ${c0} ${h} ${eta34} ${ksai34} ${wall_index11} ${a_thixo34} ${b_thixo34} ${alpha_thixo34} ${f0_thixo34} ${s34} 0.0 0 0
pair_coeff 3 5 sdpd/taitwater/isothermal/mf ${rho0} ${c0} ${h} ${eta35} ${ksai35} ${wall_index11} ${a_thixo35} ${b_thixo35} ${alpha_thixo35} ${f0_thixo35} ${s35} 0.0 0 0
pair_coeff 3 6 sdpd/taitwater/isothermal/mf ${rho0} ${c0} ${h} ${eta36} ${ksai36} ${wall_index11} ${a_thixo36} ${b_thixo36} ${alpha_thixo36} ${f0_thixo36} ${s36} 0.0 0 0
pair_coeff 3 7 sdpd/taitwater/isothermal/mf ${rho0} ${c0} ${h} ${eta37} ${ksai37} ${wall_index11} ${a_thixo37} ${b_thixo37} ${alpha_thixo37} ${f0_thixo37} ${s37} 0.0 0 0
pair_coeff 3 8 sdpd/taitwater/isothermal/mf ${rho0} ${c0} ${h} ${eta38} ${ksai38} ${wall_index11} ${a_thixo38} ${b_thixo38} ${alpha_thixo38} ${f0_thixo38} ${s38} 0.0 0 0
pair_coeff 3 9 sdpd/taitwater/isothermal/mf ${rho0} ${c0} ${h} ${eta39} ${ksai39} ${wall_index11} ${a_thixo39} ${b_thixo39} ${alpha_thixo39} ${f0_thixo39} ${s39} 0.0 0 0
pair_coeff 3 10 sdpd/taitwater/isothermal/mf ${rho0} ${c0} ${h} ${eta310} ${ksai310} ${wall_index11} ${a_thixo310} ${b_thixo310} ${alpha_thixo310} ${f0_thixo310} ${s310} 0.0 0 0
pair_coeff 3 11 sdpd/taitwater/isothermal/mf ${rho0} ${c0} ${h} ${eta311} ${ksai311} ${wall_index11} ${a_thixo311} ${b_thixo311} ${alpha_thixo311} ${f0_thixo311} ${s311} 0.0 0 0
pair_coeff 3 12 sdpd/taitwater/isothermal/mf ${rho0} ${c0} ${h} ${eta312} ${ksai312} ${wall_index11} ${a_thixo312} ${b_thixo312} ${alpha_thixo312} ${f0_thixo312} ${s312} 0.0 0 0
pair_coeff 3 13 sdpd/taitwater/isothermal/mf ${rho0} ${c0} ${h} ${eta313} ${ksai313} ${wall_index11} ${a_thixo313} ${b_thixo313} ${alpha_thixo313} ${f0_thixo313} ${s313} 0.0 0 0
pair_coeff 3 14 sdpd/taitwater/isothermal/mf ${rho0} ${c0} ${h} ${eta314} ${ksai314} ${wall_index11} ${a_thixo314} ${b_thixo314} ${alpha_thixo314} ${f0_thixo314} ${s314} 0.0 0 0
pair_coeff 3 15 sdpd/taitwater/isothermal/mf ${rho0} ${c0} ${h} ${eta315} ${ksai315} ${wall_index11} ${a_thixo315} ${b_thixo315} ${alpha_thixo315} ${f0_thixo315} ${s315} 0.0 0 0
pair_coeff 3 16 sdpd/taitwater/isothermal/mf ${rho0} ${c0} ${h} ${eta316} ${ksai316} ${wall_index11} ${a_thixo316} ${b_thixo316} ${alpha_thixo316} ${f0_thixo316} ${s316} 0.0 0 0
pair_coeff 3 17 sdpd/taitwater/isothermal/mf ${rho0} ${c0} ${h} ${eta317} ${ksai317} ${wall_index11} ${a_thixo317} ${b_thixo317} ${alpha_thixo317} ${f0_thixo317} ${s317} 0.0 0 0
pair_coeff 3 18 sdpd/taitwater/isothermal/mf ${rho0} ${c0} ${h} ${eta318} ${ksai318} ${wall_index11} ${a_thixo318} ${b_thixo318} ${alpha_thixo318} ${f0_thixo318} ${s318} 0.0 0 0
pair_coeff 3 19 sdpd/taitwater/isothermal/mf ${rho0} ${c0} ${h} ${eta319} ${ksai319} ${wall_index11} ${a_thixo319} ${b_thixo319} ${alpha_thixo319} ${f0_thixo319} ${s319} 0.0 0 0
pair_coeff 3 20 sdpd/taitwater/isothermal/mf ${rho0} ${c0} ${h} ${eta320} ${ksai320} ${wall_index11} ${a_thixo320} ${b_thixo320} ${alpha_thixo320} ${f0_thixo320} ${s320} 0.0 0 0
pair_coeff 3 21 sdpd/taitwater/isothermal/mf ${rho0} ${c0} ${h} ${eta321} ${ksai321} ${wall_index11} ${a_thixo321} ${b_thixo321} ${alpha_thixo321} ${f0_thixo321} ${s321} 0.0 0 0
pair_coeff 3 22 sdpd/taitwater/isothermal/mf ${rho0} ${c0} ${h} ${eta322} ${ksai322} ${wall_index11} ${a_thixo322} ${b_thixo322} ${alpha_thixo322} ${f0_thixo322} ${s322} 0.0 0 0
pair_coeff 3 23 sdpd/taitwater/isothermal/mf ${rho0} ${c0} ${h} ${eta323} ${ksai323} ${wall_index11} ${a_thixo323} ${b_thixo323} ${alpha_thixo323} ${f0_thixo323} ${s323} 0.0 0 0
pair_coeff 3 24 sdpd/taitwater/isothermal/mf ${rho0} ${c0} ${h} ${eta324} ${ksai324} ${wall_index11} ${a_thixo324} ${b_thixo324} ${alpha_thixo324} ${f0_thixo324} ${s324} 0.0 0 0
pair_coeff 3 25 sdpd/taitwater/isothermal/mf ${rho0} ${c0} ${h} ${eta325} ${ksai325} ${wall_index11} ${a_thixo325} ${b_thixo325} ${alpha_thixo325} ${f0_thixo325} ${s325} 0.0 0 0
pair_coeff 3 26 sdpd/taitwater/isothermal/mf ${rho0} ${c0} ${h} ${eta326} ${ksai326} ${wall_index11} ${a_thixo326} ${b_thixo326} ${alpha_thixo326} ${f0_thixo326} ${s326} 0.0 0 0
pair_coeff 3 27 sdpd/taitwater/isothermal/mf ${rho0} ${c0} ${h} ${eta327} ${ksai327} ${wall_index11} ${a_thixo327} ${b_thixo327} ${alpha_thixo327} ${f0_thixo327} ${s327} 0.0 0 0
pair_coeff 4 5 sdpd/taitwater/isothermal/mf ${rho0} ${c0} ${h} ${eta45} ${ksai45} ${wall_index11} ${a_thixo45} ${b_thixo45} ${alpha_thixo45} ${f0_thixo45} ${s45} 0.0 0 0
pair_coeff 4 6 sdpd/taitwater/isothermal/mf ${rho0} ${c0} ${h} ${eta46} ${ksai46} ${wall_index11} ${a_thixo46} ${b_thixo46} ${alpha_thixo46} ${f0_thixo46} ${s46} 0.0 0 0
pair_coeff 4 7 sdpd/taitwater/isothermal/mf ${rho0} ${c0} ${h} ${eta47} ${ksai47} ${wall_index11} ${a_thixo47} ${b_thixo47} ${alpha_thixo47} ${f0_thixo47} ${s47} 0.0 0 0
pair_coeff 4 8 sdpd/taitwater/isothermal/mf ${rho0} ${c0} ${h} ${eta48} ${ksai48} ${wall_index11} ${a_thixo48} ${b_thixo48} ${alpha_thixo48} ${f0_thixo48} ${s48} 0.0 0 0
pair_coeff 4 9 sdpd/taitwater/isothermal/mf ${rho0} ${c0} ${h} ${eta49} ${ksai49} ${wall_index11} ${a_thixo49} ${b_thixo49} ${alpha_thixo49} ${f0_thixo49} ${s49} 0.0 0 0
pair_coeff 4 10 sdpd/taitwater/isothermal/mf ${rho0} ${c0} ${h} ${eta410} ${ksai410} ${wall_index11} ${a_thixo410} ${b_thixo410} ${alpha_thixo410} ${f0_thixo410} ${s410} 0.0 0 0
pair_coeff 4 11 sdpd/taitwater/isothermal/mf ${rho0} ${c0} ${h} ${eta411} ${ksai411} ${wall_index11} ${a_thixo411} ${b_thixo411} ${alpha_thixo411} ${f0_thixo411} ${s411} 0.0 0 0
pair_coeff 4 12 sdpd/taitwater/isothermal/mf ${rho0} ${c0} ${h} ${eta412} ${ksai412} ${wall_index11} ${a_thixo412} ${b_thixo412} ${alpha_thixo412} ${f0_thixo412} ${s412} 0.0 0 0
pair_coeff 4 13 sdpd/taitwater/isothermal/mf ${rho0} ${c0} ${h} ${eta413} ${ksai413} ${wall_index11} ${a_thixo413} ${b_thixo413} ${alpha_thixo413} ${f0_thixo413} ${s413} 0.0 0 0
pair_coeff 4 14 sdpd/taitwater/isothermal/mf ${rho0} ${c0} ${h} ${eta414} ${ksai414} ${wall_index11} ${a_thixo414} ${b_thixo414} ${alpha_thixo414} ${f0_thixo414} ${s414} 0.0 0 0
pair_coeff 4 15 sdpd/taitwater/isothermal/mf ${rho0} ${c0} ${h} ${eta415} ${ksai415} ${wall_index11} ${a_thixo415} ${b_thixo415} ${alpha_thixo415} ${f0_thixo415} ${s415} 0.0 0 0
pair_coeff 4 16 sdpd/taitwater/isothermal/mf ${rho0} ${c0} ${h} ${eta416} ${ksai416} ${wall_index11} ${a_thixo416} ${b_thixo416} ${alpha_thixo416} ${f0_thixo416} ${s416} 0.0 0 0
pair_coeff 4 17 sdpd/taitwater/isothermal/mf ${rho0} ${c0} ${h} ${eta417} ${ksai417} ${wall_index11} ${a_thixo417} ${b_thixo417} ${alpha_thixo417} ${f0_thixo417} ${s417} 0.0 0 0
pair_coeff 4 18 sdpd/taitwater/isothermal/mf ${rho0} ${c0} ${h} ${eta418} ${ksai418} ${wall_index11} ${a_thixo418} ${b_thixo418} ${alpha_thixo418} ${f0_thixo418} ${s418} 0.0 0 0
pair_coeff 4 19 sdpd/taitwater/isothermal/mf ${rho0} ${c0} ${h} ${eta419} ${ksai419} ${wall_index11} ${a_thixo419} ${b_thixo419} ${alpha_thixo419} ${f0_thixo419} ${s419} 0.0 0 0
pair_coeff 4 20 sdpd/taitwater/isothermal/mf ${rho0} ${c0} ${h} ${eta420} ${ksai420} ${wall_index11} ${a_thixo420} ${b_thixo420} ${alpha_thixo420} ${f0_thixo420} ${s420} 0.0 0 0
pair_coeff 4 21 sdpd/taitwater/isothermal/mf ${rho0} ${c0} ${h} ${eta421} ${ksai421} ${wall_index11} ${a_thixo421} ${b_thixo421} ${alpha_thixo421} ${f0_thixo421} ${s421} 0.0 0 0
pair_coeff 4 22 sdpd/taitwater/isothermal/mf ${rho0} ${c0} ${h} ${eta422} ${ksai422} ${wall_index11} ${a_thixo422} ${b_thixo422} ${alpha_thixo422} ${f0_thixo422} ${s422} 0.0 0 0
pair_coeff 4 23 sdpd/taitwater/isothermal/mf ${rho0} ${c0} ${h} ${eta423} ${ksai423} ${wall_index11} ${a_thixo423} ${b_thixo423} ${alpha_thixo423} ${f0_thixo423} ${s423} 0.0 0 0
pair_coeff 4 24 sdpd/taitwater/isothermal/mf ${rho0} ${c0} ${h} ${eta424} ${ksai424} ${wall_index11} ${a_thixo424} ${b_thixo424} ${alpha_thixo424} ${f0_thixo424} ${s424} 0.0 0 0
pair_coeff 4 25 sdpd/taitwater/isothermal/mf ${rho0} ${c0} ${h} ${eta425} ${ksai425} ${wall_index11} ${a_thixo425} ${b_thixo425} ${alpha_thixo425} ${f0_thixo425} ${s425} 0.0 0 0
pair_coeff 4 26 sdpd/taitwater/isothermal/mf ${rho0} ${c0} ${h} ${eta426} ${ksai426} ${wall_index11} ${a_thixo426} ${b_thixo426} ${alpha_thixo426} ${f0_thixo426} ${s426} 0.0 0 0
pair_coeff 4 27 sdpd/taitwater/isothermal/mf ${rho0} ${c0} ${h} ${eta427} ${ksai427} ${wall_index11} ${a_thixo427} ${b_thixo427} ${alpha_thixo427} ${f0_thixo427} ${s427} 0.0 0 0
pair_coeff 5 6 sdpd/taitwater/isothermal/mf ${rho0} ${c0} ${h} ${eta56} ${ksai56} ${wall_index11} ${a_thixo56} ${b_thixo56} ${alpha_thixo56} ${f0_thixo56} ${s56} 0.0 0 0
pair_coeff 5 7 sdpd/taitwater/isothermal/mf ${rho0} ${c0} ${h} ${eta57} ${ksai57} ${wall_index11} ${a_thixo57} ${b_thixo57} ${alpha_thixo57} ${f0_thixo57} ${s57} 0.0 0 0
pair_coeff 5 8 sdpd/taitwater/isothermal/mf ${rho0} ${c0} ${h} ${eta58} ${ksai58} ${wall_index11} ${a_thixo58} ${b_thixo58} ${alpha_thixo58} ${f0_thixo58} ${s58} 0.0 0 0
pair_coeff 5 9 sdpd/taitwater/isothermal/mf ${rho0} ${c0} ${h} ${eta59} ${ksai59} ${wall_index11} ${a_thixo59} ${b_thixo59} ${alpha_thixo59} ${f0_thixo59} ${s59} 0.0 0 0
pair_coeff 5 10 sdpd/taitwater/isothermal/mf ${rho0} ${c0} ${h} ${eta510} ${ksai510} ${wall_index11} ${a_thixo510} ${b_thixo510} ${alpha_thixo510} ${f0_thixo510} ${s510} 0.0 0 0
pair_coeff 5 11 sdpd/taitwater/isothermal/mf ${rho0} ${c0} ${h} ${eta511} ${ksai511} ${wall_index11} ${a_thixo511} ${b_thixo511} ${alpha_thixo511} ${f0_thixo511} ${s511} 0.0 0 0
pair_coeff 5 12 sdpd/taitwater/isothermal/mf ${rho0} ${c0} ${h} ${eta512} ${ksai512} ${wall_index11} ${a_thixo512} ${b_thixo512} ${alpha_thixo512} ${f0_thixo512} ${s512} 0.0 0 0
pair_coeff 5 13 sdpd/taitwater/isothermal/mf ${rho0} ${c0} ${h} ${eta513} ${ksai513} ${wall_index11} ${a_thixo513} ${b_thixo513} ${alpha_thixo513} ${f0_thixo513} ${s513} 0.0 0 0
pair_coeff 5 14 sdpd/taitwater/isothermal/mf ${rho0} ${c0} ${h} ${eta514} ${ksai514} ${wall_index11} ${a_thixo514} ${b_thixo514} ${alpha_thixo514} ${f0_thixo514} ${s514} 0.0 0 0
pair_coeff 5 15 sdpd/taitwater/isothermal/mf ${rho0} ${c0} ${h} ${eta515} ${ksai515} ${wall_index11} ${a_thixo515} ${b_thixo515} ${alpha_thixo515} ${f0_thixo515} ${s515} 0.0 0 0
pair_coeff 5 16 sdpd/taitwater/isothermal/mf ${rho0} ${c0} ${h} ${eta516} ${ksai516} ${wall_index11} ${a_thixo516} ${b_thixo516} ${alpha_thixo516} ${f0_thixo516} ${s516} 0.0 0 0
pair_coeff 5 17 sdpd/taitwater/isothermal/mf ${rho0} ${c0} ${h} ${eta517} ${ksai517} ${wall_index11} ${a_thixo517} ${b_thixo517} ${alpha_thixo517} ${f0_thixo517} ${s517} 0.0 0 0
pair_coeff 5 18 sdpd/taitwater/isothermal/mf ${rho0} ${c0} ${h} ${eta518} ${ksai518} ${wall_index11} ${a_thixo518} ${b_thixo518} ${alpha_thixo518} ${f0_thixo518} ${s518} 0.0 0 0
pair_coeff 5 19 sdpd/taitwater/isothermal/mf ${rho0} ${c0} ${h} ${eta519} ${ksai519} ${wall_index11} ${a_thixo519} ${b_thixo519} ${alpha_thixo519} ${f0_thixo519} ${s519} 0.0 0 0
pair_coeff 5 20 sdpd/taitwater/isothermal/mf ${rho0} ${c0} ${h} ${eta520} ${ksai520} ${wall_index11} ${a_thixo520} ${b_thixo520} ${alpha_thixo520} ${f0_thixo520} ${s520} 0.0 0 0
pair_coeff 5 21 sdpd/taitwater/isothermal/mf ${rho0} ${c0} ${h} ${eta521} ${ksai521} ${wall_index11} ${a_thixo521} ${b_thixo521} ${alpha_thixo521} ${f0_thixo521} ${s521} 0.0 0 0
pair_coeff 5 22 sdpd/taitwater/isothermal/mf ${rho0} ${c0} ${h} ${eta522} ${ksai522} ${wall_index11} ${a_thixo522} ${b_thixo522} ${alpha_thixo522} ${f0_thixo522} ${s522} 0.0 0 0
pair_coeff 5 23 sdpd/taitwater/isothermal/mf ${rho0} ${c0} ${h} ${eta523} ${ksai523} ${wall_index11} ${a_thixo523} ${b_thixo523} ${alpha_thixo523} ${f0_thixo523} ${s523} 0.0 0 0
pair_coeff 5 24 sdpd/taitwater/isothermal/mf ${rho0} ${c0} ${h} ${eta524} ${ksai524} ${wall_index11} ${a_thixo524} ${b_thixo524} ${alpha_thixo524} ${f0_thixo524} ${s524} 0.0 0 0
pair_coeff 5 25 sdpd/taitwater/isothermal/mf ${rho0} ${c0} ${h} ${eta525} ${ksai525} ${wall_index11} ${a_thixo525} ${b_thixo525} ${alpha_thixo525} ${f0_thixo525} ${s525} 0.0 0 0
pair_coeff 5 26 sdpd/taitwater/isothermal/mf ${rho0} ${c0} ${h} ${eta526} ${ksai526} ${wall_index11} ${a_thixo526} ${b_thixo526} ${alpha_thixo526} ${f0_thixo526} ${s526} 0.0 0 0
pair_coeff 5 27 sdpd/taitwater/isothermal/mf ${rho0} ${c0} ${h} ${eta527} ${ksai527} ${wall_index11} ${a_thixo527} ${b_thixo527} ${alpha_thixo527} ${f0_thixo527} ${s527} 0.0 0 0
pair_coeff 6 7 sdpd/taitwater/isothermal/mf ${rho0} ${c0} ${h} ${eta67} ${ksai67} ${wall_index11} ${a_thixo67} ${b_thixo67} ${alpha_thixo67} ${f0_thixo67} ${s67} 0.0 0 0
pair_coeff 6 8 sdpd/taitwater/isothermal/mf ${rho0} ${c0} ${h} ${eta68} ${ksai68} ${wall_index11} ${a_thixo68} ${b_thixo68} ${alpha_thixo68} ${f0_thixo68} ${s68} 0.0 0 0
pair_coeff 6 9 sdpd/taitwater/isothermal/mf ${rho0} ${c0} ${h} ${eta69} ${ksai69} ${wall_index11} ${a_thixo69} ${b_thixo69} ${alpha_thixo69} ${f0_thixo69} ${s69} 0.0 0 0
pair_coeff 6 10 sdpd/taitwater/isothermal/mf ${rho0} ${c0} ${h} ${eta610} ${ksai610} ${wall_index11} ${a_thixo610} ${b_thixo610} ${alpha_thixo610} ${f0_thixo610} ${s610} 0.0 0 0
pair_coeff 6 11 sdpd/taitwater/isothermal/mf ${rho0} ${c0} ${h} ${eta611} ${ksai611} ${wall_index11} ${a_thixo611} ${b_thixo611} ${alpha_thixo611} ${f0_thixo611} ${s611} 0.0 0 0
pair_coeff 6 12 sdpd/taitwater/isothermal/mf ${rho0} ${c0} ${h} ${eta612} ${ksai612} ${wall_index11} ${a_thixo612} ${b_thixo612} ${alpha_thixo612} ${f0_thixo612} ${s612} 0.0 0 0
pair_coeff 6 13 sdpd/taitwater/isothermal/mf ${rho0} ${c0} ${h} ${eta613} ${ksai613} ${wall_index11} ${a_thixo613} ${b_thixo613} ${alpha_thixo613} ${f0_thixo613} ${s613} 0.0 0 0
pair_coeff 6 14 sdpd/taitwater/isothermal/mf ${rho0} ${c0} ${h} ${eta614} ${ksai614} ${wall_index11} ${a_thixo614} ${b_thixo614} ${alpha_thixo614} ${f0_thixo614} ${s614} 0.0 0 0
pair_coeff 6 15 sdpd/taitwater/isothermal/mf ${rho0} ${c0} ${h} ${eta615} ${ksai615} ${wall_index11} ${a_thixo615} ${b_thixo615} ${alpha_thixo615} ${f0_thixo615} ${s615} 0.0 0 0
pair_coeff 6 16 sdpd/taitwater/isothermal/mf ${rho0} ${c0} ${h} ${eta616} ${ksai616} ${wall_index11} ${a_thixo616} ${b_thixo616} ${alpha_thixo616} ${f0_thixo616} ${s616} 0.0 0 0
pair_coeff 6 17 sdpd/taitwater/isothermal/mf ${rho0} ${c0} ${h} ${eta617} ${ksai617} ${wall_index11} ${a_thixo617} ${b_thixo617} ${alpha_thixo617} ${f0_thixo617} ${s617} 0.0 0 0
pair_coeff 6 18 sdpd/taitwater/isothermal/mf ${rho0} ${c0} ${h} ${eta618} ${ksai618} ${wall_index11} ${a_thixo618} ${b_thixo618} ${alpha_thixo618} ${f0_thixo618} ${s618} 0.0 0 0
pair_coeff 6 19 sdpd/taitwater/isothermal/mf ${rho0} ${c0} ${h} ${eta619} ${ksai619} ${wall_index11} ${a_thixo619} ${b_thixo619} ${alpha_thixo619} ${f0_thixo619} ${s619} 0.0 0 0
pair_coeff 6 20 sdpd/taitwater/isothermal/mf ${rho0} ${c0} ${h} ${eta620} ${ksai620} ${wall_index11} ${a_thixo620} ${b_thixo620} ${alpha_thixo620} ${f0_thixo620} ${s620} 0.0 0 0
pair_coeff 6 21 sdpd/taitwater/isothermal/mf ${rho0} ${c0} ${h} ${eta621} ${ksai621} ${wall_index11} ${a_thixo621} ${b_thixo621} ${alpha_thixo621} ${f0_thixo621} ${s621} 0.0 0 0
pair_coeff 6 22 sdpd/taitwater/isothermal/mf ${rho0} ${c0} ${h} ${eta622} ${ksai622} ${wall_index11} ${a_thixo622} ${b_thixo622} ${alpha_thixo622} ${f0_thixo622} ${s622} 0.0 0 0
pair_coeff 6 23 sdpd/taitwater/isothermal/mf ${rho0} ${c0} ${h} ${eta623} ${ksai623} ${wall_index11} ${a_thixo623} ${b_thixo623} ${alpha_thixo623} ${f0_thixo623} ${s623} 0.0 0 0
pair_coeff 6 24 sdpd/taitwater/isothermal/mf ${rho0} ${c0} ${h} ${eta624} ${ksai624} ${wall_index11} ${a_thixo624} ${b_thixo624} ${alpha_thixo624} ${f0_thixo624} ${s624} 0.0 0 0
pair_coeff 6 25 sdpd/taitwater/isothermal/mf ${rho0} ${c0} ${h} ${eta625} ${ksai625} ${wall_index11} ${a_thixo625} ${b_thixo625} ${alpha_thixo625} ${f0_thixo625} ${s625} 0.0 0 0
pair_coeff 6 26 sdpd/taitwater/isothermal/mf ${rho0} ${c0} ${h} ${eta626} ${ksai626} ${wall_index11} ${a_thixo626} ${b_thixo626} ${alpha_thixo626} ${f0_thixo626} ${s626} 0.0 0 0
pair_coeff 6 27 sdpd/taitwater/isothermal/mf ${rho0} ${c0} ${h} ${eta627} ${ksai627} ${wall_index11} ${a_thixo627} ${b_thixo627} ${alpha_thixo627} ${f0_thixo627} ${s627} 0.0 0 0
pair_coeff 7 8 sdpd/taitwater/isothermal/mf ${rho0} ${c0} ${h} ${eta78} ${ksai78} ${wall_index11} ${a_thixo78} ${b_thixo78} ${alpha_thixo78} ${f0_thixo78} ${s78} 0.0 0 0
pair_coeff 7 9 sdpd/taitwater/isothermal/mf ${rho0} ${c0} ${h} ${eta79} ${ksai79} ${wall_index11} ${a_thixo79} ${b_thixo79} ${alpha_thixo79} ${f0_thixo79} ${s79} 0.0 0 0
pair_coeff 7 10 sdpd/taitwater/isothermal/mf ${rho0} ${c0} ${h} ${eta710} ${ksai710} ${wall_index11} ${a_thixo710} ${b_thixo710} ${alpha_thixo710} ${f0_thixo710} ${s710} 0.0 0 0
pair_coeff 7 11 sdpd/taitwater/isothermal/mf ${rho0} ${c0} ${h} ${eta711} ${ksai711} ${wall_index11} ${a_thixo711} ${b_thixo711} ${alpha_thixo711} ${f0_thixo711} ${s711} 0.0 0 0