pair_coeff 3 3 sdpd/taitwater/isothermal/mf ${rho0} ${c0} ${h} ${eta33} ${ksai33} ${wall_index11} ${a_thixo33} ${b_thixo33} ${alpha_thixo33} ${f0_thixo33} ${s33} 0.0 0 0

pair_coeff 1 3 sdpd/taitwater/isothermal/mf ${rho0} ${c0} ${h} ${eta13} ${ksai13} ${wall_index11} ${a_thixo13} ${b_thixo13} ${alpha_thixo13} ${f0_thixo13} ${s13} 0.0 0 0

pair_coeff 2 3 sdpd/taitwater/isothermal/mf ${rho0} ${c0} ${h} ${eta13} ${ksai13} ${wall_index11} ${a_thixo13} ${b_thixo13} ${alpha_thixo13} ${f0_thixo13} ${s23} 0.0 0 0

